% File represents an instance of a Composite Structure problem to be solved by a CP framework
% Created on 2025-03-26 10:41:43.229
T = 50;
n = 25;
m = 40;
edges = [(1, 2),
(6, 7),
(11, 12),
(16, 17),
(21, 22),
(2, 3),
(7, 8),
(12, 13),
(17, 18),
(22, 23),
(3, 4),
(8, 9),
(13, 14),
(18, 19),
(23, 24),
(5, 4),
(9, 10),
(14, 15),
(20, 19),
(25, 24),
(6, 1),
(11, 6),
(11, 16),
(16, 21),
(7, 2),
(12, 7),
(12, 17),
(17, 22),
(8, 3),
(13, 8),
(13, 18),
(18, 23),
(9, 4),
(14, 9),
(14, 19),
(19, 24),
(5, 10),
(15, 10),
(20, 15),
(20, 25)];
counts = [|4, 14, 4, 16,
|4, 12, 4, 12,
|2, 12, 2, 10,
|2, 10, 2, 10,
|2, 12, 2, 14,
|6, 14, 6, 18,
|6, 12, 6, 14,
|4, 12, 4, 12,
|4, 12, 4, 10,
|2, 10, 2, 10,
|6, 18, 6, 20,
|6, 16, 6, 16,
|6, 14, 6, 12,
|6, 14, 6, 10,
|4, 12, 4, 10,
|6, 14, 6, 18,
|4, 14, 4, 16,
|4, 12, 4, 12,
|4, 12, 4, 10,
|4, 16, 4, 12,
|4, 14, 4, 18,
|4, 14, 4, 12,
|4, 10, 4, 10,
|4, 8, 4, 10,
|4, 12, 4, 10|];
